etc/upTests/tuples_nested/0001.eprime
language ESSENCE' 1.0

find y_tuple1: int(1..4)
find y_tuple2_tuple1: int(1..3)
find y_tuple2_tuple2: int(2..5)
find y_tuple2_tuple3: int(3..6)
such that
    y_tuple1 = 1,
    y_tuple2_tuple1 = 1,
    y_tuple2_tuple2 = 2,
    y_tuple2_tuple3 = 3
