etc/upTests/tuples_nested/0001.eprime.solution
language ESSENCE' 1.0
$ minion Nodes: 1
$ minion TotalTime: 0.000575
$ Savile Row TotalTime: 0.223
letting y_tuple1 be 1
letting y_tuple2_tuple1 be 1
letting y_tuple2_tuple2 be 2
letting y_tuple2_tuple3 be 3
